nNurses = 94;
nHours = 29;
minHours = 6;
maxHours = 13;
maxConsec = 12;
maxPresence = 18;
demand = [10, 15, 19, 16, 18, 18, 17, 16, 13, 16, 11, 8, 10, 8, 10, 10, 7, 12, 12, 15, 19, 20, 22, 26, 26, 30, 34, 31, 33];
